n = 40;
m = 77;
w = [8,3,9,3,8,10,4,5,9,8,4,9,2,5,5,10,2,6,1,5,7,5,4,3,2,8,5,4,8,8,7,2,6,9,1,7,10,2,7,2,4,4,7,9,10,6,3,1,10,7,10,6,1,8,1,5,1,9,6,5,6,1,3,5,2,1,10,7,10,5,10,7,2,8,3,1,1];
edges = array2d(1..m, 1..2, [1,5,1,18,1,35,2,25,3,14,3,33,4,35,5,7,5,8,5,10,5,11,5,37,5,38,6,18,6,23,6,25,6,30,6,32,7,12,7,15,7,20,7,29,7,38,8,13,8,15,9,25,10,23,10,24,11,20,11,21,11,24,11,40,12,29,12,36,13,20,13,32,15,24,16,18,16,21,16,23,16,32,16,36,16,38,17,33,18,19,18,24,18,28,18,33,19,25,20,22,20,24,20,31,20,33,20,34,20,38,21,34,22,31,22,33,23,27,23,37,24,32,24,35,24,36,24,38,25,30,25,34,26,34,26,40,28,31,28,33,29,32,29,35,29,36,29,39,32,34,35,37,36,37]);
